decision_x1=[0,4];
decision_x2=[0,4];
decision_x3=[0,4];
decision_x4=[0,4];
decision_x5=[0,4];
decision_x6=[0,4];
decision_x7=[0,4];
decision_x8=[0,4];
decision_x9=[0,4];
decision_x10=[0,4];
decision_x11=[0,4];
decision_x12=[0,4];
decision_x13=[0,4];
decision_x14=[0,4];
random_y1=[0,4];
random_y2=[0,4];
random_y3=[0,4];
random_y4=[0,4];
random_y5=[0,4];
random_y6=[0,4];
random_y7=[0,4];
constraint_x3_x1=[
0,1,5.7|
0,2,3.4|
0,3,3.6|
0,4,0.75|
1,0,2.3|
1,2,3.3|
1,3,0.35|
1,4,1.2|
2,0,4.5|
2,1,7.7|
2,3,5.1|
2,4,0.24|
3,0,6.1|
3,1,5.6|
3,2,2.4|
3,4,1.3|
4,0,4.1|
4,1,0.78|
4,2,5.6|
4,3,3.9|
];
constraint_x3_x2=[
0,1,8.7|
0,2,0.83|
0,3,1.8|
0,4,6.5|
1,0,1.3|
1,2,5.2|
1,3,0.93|
1,4,2|
2,0,5.2|
2,1,3.3|
2,3,9.9|
2,4,3.5|
3,0,2.1|
3,1,5.9|
3,2,9.7|
3,4,8.8|
4,0,5.7|
4,1,5.6|
4,2,2.1|
4,3,6.6|
];
constraint_x4_x1=[
0,1,6.3|
0,2,0.31|
0,3,5.5|
0,4,8.1|
1,0,4.2|
1,2,9.5|
1,3,4.9|
1,4,0.8|
2,0,8.1|
2,1,4.2|
2,3,4|
2,4,5|
3,0,7|
3,1,9.8|
3,2,9.5|
3,4,3.9|
4,0,9.2|
4,1,6.4|
4,2,5.7|
4,3,5.9|
];
constraint_x4_x2=[
0,1,2.1|
0,2,5.9|
0,3,1.6|
0,4,0.93|
1,0,5.2|
1,2,2.4|
1,3,0.21|
1,4,2.4|
2,0,5.8|
2,1,2.7|
2,3,3.4|
2,4,2.4|
3,0,2.4|
3,1,1.1|
3,2,4.8|
3,4,7.5|
4,0,7.1|
4,1,0.27|
4,2,6.8|
4,3,9.7|
];
constraint_x5_x1=[
0,1,8.3|
0,2,2.7|
0,3,10|
0,4,5.2|
1,0,3.4|
1,2,8.2|
1,3,8.6|
1,4,0.86|
2,0,7.4|
2,1,2.2|
2,3,4.8|
2,4,7.3|
3,0,4.4|
3,1,3.9|
3,2,2.1|
3,4,4.5|
4,0,7.5|
4,1,0.36|
4,2,5|
4,3,4|
];
constraint_x5_x3=[
0,1,2.2|
0,2,7.6|
0,3,8.1|
0,4,6|
1,0,1.1|
1,2,7.8|
1,3,5.3|
1,4,6.7|
2,0,7.9|
2,1,9.4|
2,3,9.6|
2,4,9.3|
3,0,0.83|
3,1,5.1|
3,2,1.4|
3,4,5.6|
4,0,2.4|
4,1,9.2|
4,2,8.8|
4,3,0.69|
];
constraint_x6_x3=[
0,1,8.1|
0,2,1.6|
0,3,8.2|
0,4,4.9|
1,0,4.2|
1,2,4.3|
1,3,3|
1,4,8.3|
2,0,0.29|
2,1,6.2|
2,3,9.5|
2,4,6.1|
3,0,3.8|
3,1,4.1|
3,2,1.6|
3,4,5|
4,0,1.1|
4,1,3.3|
4,2,2.6|
4,3,4.3|
];
constraint_x6_x4=[
0,1,7.3|
0,2,0.7|
0,3,6.1|
0,4,7.3|
1,0,4.1|
1,2,8.7|
1,3,5.5|
1,4,6.2|
2,0,9.7|
2,1,0.32|
2,3,7.2|
2,4,0.26|
3,0,1.5|
3,1,2.8|
3,2,1.6|
3,4,3.1|
4,0,2|
4,1,8.5|
4,2,1.2|
4,3,4.4|
];
constraint_x6_x5=[
0,1,1.2|
0,2,9.4|
0,3,6.9|
0,4,2.5|
1,0,5.9|
1,2,5.1|
1,3,1.8|
1,4,5.2|
2,0,3.9|
2,1,7.9|
2,3,8.7|
2,4,3.2|
3,0,9.6|
3,1,0.63|
3,2,1.9|
3,4,4.9|
4,0,7.3|
4,1,0.53|
4,2,8.6|
4,3,7.9|
];
constraint_x7_x1=[
0,1,2.9|
0,2,3.3|
0,3,1.1|
0,4,4.3|
1,0,5.2|
1,2,1.1|
1,3,4.3|
1,4,1.3|
2,0,4.4|
2,1,4.5|
2,3,9.6|
2,4,0.22|
3,0,4.4|
3,1,4.8|
3,2,5|
3,4,9.4|
4,0,3.8|
4,1,5.1|
4,2,6.1|
4,3,0.43|
];
constraint_x7_x4=[
0,1,5.5|
0,2,0.36|
0,3,8.9|
0,4,1.6|
1,0,1.4|
1,2,5.2|
1,3,8.9|
1,4,5.8|
2,0,6.3|
2,1,1.1|
2,3,9.1|
2,4,3.8|
3,0,7.8|
3,1,6.2|
3,2,0.59|
3,4,0.3|
4,0,8.7|
4,1,4.7|
4,2,6.2|
4,3,5.6|
];
constraint_x8_x1=[
0,1,0.13|
0,2,4.7|
0,3,4.5|
0,4,1.1|
1,0,3.8|
1,2,1.1|
1,3,1.6|
1,4,7.3|
2,0,4|
2,1,3.7|
2,3,9.4|
2,4,0.74|
3,0,1.5|
3,1,0.068|
3,2,0.82|
3,4,9.2|
4,0,8.5|
4,1,8.7|
4,2,7|
4,3,7.6|
];
constraint_x8_x6=[
0,1,2.8|
0,2,3.7|
0,3,1.4|
0,4,2.7|
1,0,2.8|
1,2,1.2|
1,3,7.1|
1,4,5.1|
2,0,0.93|
2,1,8.1|
2,3,6.4|
2,4,1.7|
3,0,6.9|
3,1,6.9|
3,2,6.7|
3,4,1.1|
4,0,5.8|
4,1,3.3|
4,2,4.2|
4,3,0.27|
];
constraint_x8_x7=[
0,1,0.13|
0,2,3.3|
0,3,6.3|
0,4,6.3|
1,0,1.2|
1,2,7.5|
1,3,4.2|
1,4,6.5|
2,0,2.2|
2,1,0.36|
2,3,5.4|
2,4,3.9|
3,0,4.5|
3,1,5.2|
3,2,2.5|
3,4,5.1|
4,0,1.2|
4,1,7.5|
4,2,5.5|
4,3,7.9|
];
constraint_x9_x2=[
0,1,4.7|
0,2,2.7|
0,3,2.2|
0,4,3.7|
1,0,2.6|
1,2,1.4|
1,3,2.6|
1,4,9.1|
2,0,5|
2,1,7.5|
2,3,9.3|
2,4,4.4|
3,0,5.9|
3,1,8.2|
3,2,4.1|
3,4,3.7|
4,0,2.6|
4,1,5.7|
4,2,4.4|
4,3,0.19|
];
constraint_x9_x3=[
0,1,0.2|
0,2,9.1|
0,3,8.1|
0,4,4.1|
1,0,10|
1,2,2.3|
1,3,8.1|
1,4,7.5|
2,0,0.23|
2,1,3.7|
2,3,7.1|
2,4,1.5|
3,0,9.6|
3,1,2.4|
3,2,0.26|
3,4,1.1|
4,0,2.2|
4,1,3.7|
4,2,5.4|
4,3,0.37|
];
constraint_x9_x4=[
0,1,2.9|
0,2,7.6|
0,3,5.7|
0,4,1.5|
1,0,0.21|
1,2,7.4|
1,3,6.3|
1,4,9.8|
2,0,3.8|
2,1,6.9|
2,3,9.2|
2,4,2.2|
3,0,2|
3,1,4.2|
3,2,4|
3,4,4.3|
4,0,7.1|
4,1,5|
4,2,5.9|
4,3,4.7|
];
constraint_x9_x8=[
0,1,2.5|
0,2,7.5|
0,3,8.9|
0,4,4.7|
1,0,9.9|
1,2,0.48|
1,3,10|
1,4,5.3|
2,0,0.62|
2,1,0.77|
2,3,8.8|
2,4,1.8|
3,0,8.7|
3,1,2.5|
3,2,4.3|
3,4,8.6|
4,0,4.4|
4,1,0.55|
4,2,1.6|
4,3,5.5|
];
constraint_x10_x5=[
0,1,7.5|
0,2,3.1|
0,3,8.2|
0,4,5.4|
1,0,1.6|
1,2,3.4|
1,3,8.7|
1,4,2.8|
2,0,5.1|
2,1,7|
2,3,4.1|
2,4,8.8|
3,0,5.2|
3,1,3.7|
3,2,8.5|
3,4,0.017|
4,0,6.7|
4,1,4.7|
4,2,8.9|
4,3,1.8|
];
constraint_x10_x7=[
0,1,2.6|
0,2,2.4|
0,3,8.8|
0,4,2.7|
1,0,1.9|
1,2,9.9|
1,3,1.6|
1,4,9.6|
2,0,9.3|
2,1,5.6|
2,3,6.1|
2,4,4.1|
3,0,4.1|
3,1,3.9|
3,2,4.1|
3,4,8.9|
4,0,9.3|
4,1,10|
4,2,7.8|
4,3,7|
];
constraint_x10_x9=[
0,1,3.3|
0,2,6.8|
0,3,7.3|
0,4,2.8|
1,0,6.8|
1,2,6.5|
1,3,4.9|
1,4,4.3|
2,0,6.2|
2,1,3.7|
2,3,9.1|
2,4,2.5|
3,0,0.13|
3,1,0.42|
3,2,2.4|
3,4,5.4|
4,0,1.2|
4,1,4.4|
4,2,0.79|
4,3,0.4|
];
constraint_x11_x2=[
0,1,1.9|
0,2,7.4|
0,3,1.8|
0,4,6.5|
1,0,4.3|
1,2,7.3|
1,3,4.5|
1,4,2|
2,0,6.1|
2,1,8.1|
2,3,8.1|
2,4,1.4|
3,0,2.4|
3,1,7.1|
3,2,5.6|
3,4,8|
4,0,0.55|
4,1,1.9|
4,2,4.4|
4,3,9.9|
];
constraint_x11_x4=[
0,1,3.2|
0,2,3.6|
0,3,8|
0,4,6.1|
1,0,1.8|
1,2,1.9|
1,3,2.1|
1,4,5.3|
2,0,4|
2,1,7.3|
2,3,3.8|
2,4,0.086|
3,0,3.7|
3,1,5.4|
3,2,4.3|
3,4,0.36|
4,0,8.7|
4,1,6.4|
4,2,4|
4,3,3.6|
];
constraint_x11_x5=[
0,1,6.9|
0,2,0.73|
0,3,2.1|
0,4,5.2|
1,0,7.4|
1,2,2.4|
1,3,3.2|
1,4,9.1|
2,0,5.9|
2,1,3.7|
2,3,4.8|
2,4,6.4|
3,0,3.9|
3,1,3.2|
3,2,8|
3,4,4.5|
4,0,3.7|
4,1,9.8|
4,2,9.1|
4,3,2.3|
];
constraint_x11_x6=[
0,1,8.9|
0,2,4.6|
0,3,5.6|
0,4,4.8|
1,0,0.97|
1,2,8.6|
1,3,6.4|
1,4,0.89|
2,0,9.2|
2,1,9.2|
2,3,1.3|
2,4,2.2|
3,0,4.2|
3,1,8.3|
3,2,5.3|
3,4,6.6|
4,0,7.3|
4,1,8.8|
4,2,9.7|
4,3,1.9|
];
constraint_x11_x7=[
0,1,9.3|
0,2,4.3|
0,3,3.9|
0,4,2.8|
1,0,3.8|
1,2,6.5|
1,3,6.4|
1,4,8.7|
2,0,8|
2,1,2|
2,3,0.11|
2,4,4.4|
3,0,0.79|
3,1,9.5|
3,2,0.24|
3,4,2.5|
4,0,8|
4,1,1.6|
4,2,1.7|
4,3,1.6|
];
constraint_x12_x1=[
0,1,1.5|
0,2,6.4|
0,3,2|
0,4,6.7|
1,0,3.5|
1,2,9.1|
1,3,1.7|
1,4,6.4|
2,0,0.75|
2,1,10|
2,3,6.1|
2,4,1.1|
3,0,4.3|
3,1,5.3|
3,2,0.27|
3,4,7.6|
4,0,4.1|
4,1,2.8|
4,2,3.1|
4,3,9.3|
];
constraint_x12_x2=[
0,1,8.4|
0,2,7.5|
0,3,2.9|
0,4,3.5|
1,0,3.3|
1,2,2.8|
1,3,3.9|
1,4,0.56|
2,0,3.8|
2,1,4.8|
2,3,2.2|
2,4,0.74|
3,0,5.8|
3,1,0.74|
3,2,4.4|
3,4,9|
4,0,1.2|
4,1,1.5|
4,2,1.1|
4,3,3.7|
];
constraint_x12_x5=[
0,1,5.4|
0,2,2.9|
0,3,0.23|
0,4,8.9|
1,0,0.64|
1,2,3.9|
1,3,9.6|
1,4,5.1|
2,0,9.2|
2,1,6.1|
2,3,9.8|
2,4,8|
3,0,7.7|
3,1,7.7|
3,2,9.7|
3,4,9.6|
4,0,6.6|
4,1,3.4|
4,2,3|
4,3,6.5|
];
constraint_x12_x6=[
0,1,0.9|
0,2,2.6|
0,3,4.7|
0,4,9.5|
1,0,0.93|
1,2,4.7|
1,3,0.61|
1,4,8.3|
2,0,9|
2,1,9.7|
2,3,6.7|
2,4,7.9|
3,0,2.2|
3,1,4.6|
3,2,2.1|
3,4,7.3|
4,0,6.2|
4,1,1.7|
4,2,9.3|
4,3,3.2|
];
constraint_x12_x7=[
0,1,1.6|
0,2,7.7|
0,3,7.8|
0,4,3.3|
1,0,5.9|
1,2,6.2|
1,3,3.2|
1,4,3.4|
2,0,2.3|
2,1,6.9|
2,3,2.9|
2,4,5.2|
3,0,3.5|
3,1,0.66|
3,2,3|
3,4,4.2|
4,0,2.5|
4,1,4.6|
4,2,3.2|
4,3,7.7|
];
constraint_x12_x11=[
0,1,3.6|
0,2,0.94|
0,3,1.3|
0,4,3.9|
1,0,5.2|
1,2,5.9|
1,3,4.2|
1,4,0.94|
2,0,5.7|
2,1,7.2|
2,3,4.1|
2,4,1.8|
3,0,6.3|
3,1,4.8|
3,2,1.1|
3,4,0.23|
4,0,6.1|
4,1,1.8|
4,2,2.3|
4,3,1.1|
];
constraint_x13_x1=[
0,1,5.9|
0,2,3.9|
0,3,9|
0,4,4.6|
1,0,0.031|
1,2,0.17|
1,3,4.6|
1,4,4.8|
2,0,8.8|
2,1,6.6|
2,3,8.6|
2,4,5.5|
3,0,5.5|
3,1,3.7|
3,2,6.2|
3,4,0.12|
4,0,7.3|
4,1,2.2|
4,2,0.16|
4,3,3.5|
];
constraint_x13_x4=[
0,1,1.3|
0,2,0.77|
0,3,4.2|
0,4,5.2|
1,0,1.5|
1,2,3.3|
1,3,5.6|
1,4,0.73|
2,0,2|
2,1,7.9|
2,3,1.8|
2,4,0.77|
3,0,6.9|
3,1,8.9|
3,2,2.8|
3,4,4.8|
4,0,5.8|
4,1,4.9|
4,2,8.8|
4,3,2.2|
];
constraint_x13_x6=[
0,1,9.3|
0,2,3.9|
0,3,0.49|
0,4,3.5|
1,0,9.7|
1,2,8.5|
1,3,1.2|
1,4,0.16|
2,0,7.4|
2,1,7.7|
2,3,6.5|
2,4,1|
3,0,0.59|
3,1,0.92|
3,2,3.3|
3,4,1.1|
4,0,4.8|
4,1,3.1|
4,2,7|
4,3,3.6|
];
constraint_x13_x7=[
0,1,5.6|
0,2,2.1|
0,3,2.2|
0,4,2.3|
1,0,8.8|
1,2,5.5|
1,3,2.5|
1,4,9|
2,0,9.4|
2,1,6.9|
2,3,4.8|
2,4,8.9|
3,0,5.4|
3,1,4.4|
3,2,4.2|
3,4,2.4|
4,0,9.9|
4,1,0.094|
4,2,6.4|
4,3,5.6|
];
constraint_x13_x9=[
0,1,3.8|
0,2,2.3|
0,3,4.2|
0,4,2.4|
1,0,9|
1,2,4.5|
1,3,8.6|
1,4,5.5|
2,0,1.2|
2,1,8.5|
2,3,5.7|
2,4,4.1|
3,0,0.028|
3,1,8.2|
3,2,9.8|
3,4,7.8|
4,0,1.7|
4,1,9.5|
4,2,8.6|
4,3,8|
];
constraint_x13_x10=[
0,1,3.8|
0,2,9.3|
0,3,7.1|
0,4,0.74|
1,0,9.2|
1,2,9.7|
1,3,9.2|
1,4,7.7|
2,0,2.4|
2,1,1.6|
2,3,2.1|
2,4,6.9|
3,0,5.6|
3,1,4.5|
3,2,3|
3,4,3.9|
4,0,1.6|
4,1,5|
4,2,4.3|
4,3,4.1|
];
constraint_x13_x12=[
0,1,0.34|
0,2,8.8|
0,3,1.7|
0,4,7.8|
1,0,4.7|
1,2,0.98|
1,3,6.6|
1,4,7.6|
2,0,3.1|
2,1,5.4|
2,3,6.5|
2,4,5.9|
3,0,0.97|
3,1,9.6|
3,2,9.7|
3,4,2.4|
4,0,9|
4,1,5.1|
4,2,3.2|
4,3,3.2|
];
constraint_x14_x2=[
0,1,5.1|
0,2,2.7|
0,3,6.2|
0,4,8|
1,0,1.3|
1,2,0.4|
1,3,4.4|
1,4,9|
2,0,5|
2,1,5.7|
2,3,8.3|
2,4,8.8|
3,0,2.5|
3,1,3.8|
3,2,0.63|
3,4,0.84|
4,0,6.3|
4,1,1.2|
4,2,3.7|
4,3,2.6|
];
constraint_x14_x4=[
0,1,7.1|
0,2,8.5|
0,3,2.6|
0,4,9.6|
1,0,3.7|
1,2,1.2|
1,3,10|
1,4,6.2|
2,0,4.8|
2,1,8.7|
2,3,7|
2,4,9.7|
3,0,8.8|
3,1,0.06|
3,2,4.2|
3,4,6.5|
4,0,6.6|
4,1,4.1|
4,2,3.1|
4,3,1.5|
];
constraint_x14_x5=[
0,1,4.3|
0,2,7.3|
0,3,6.2|
0,4,8.1|
1,0,8.4|
1,2,2.9|
1,3,1.7|
1,4,4|
2,0,5.1|
2,1,5|
2,3,5.7|
2,4,5.6|
3,0,4.7|
3,1,3.8|
3,2,3.7|
3,4,0.11|
4,0,7.5|
4,1,0.97|
4,2,3.8|
4,3,3.5|
];
constraint_x14_x6=[
0,1,8.2|
0,2,0.81|
0,3,1.1|
0,4,3.4|
1,0,7|
1,2,0.24|
1,3,3.9|
1,4,8.2|
2,0,3.5|
2,1,7.6|
2,3,1.4|
2,4,4.3|
3,0,1|
3,1,8.5|
3,2,8.2|
3,4,2.6|
4,0,0.081|
4,1,8.8|
4,2,9|
4,3,5.6|
];
constraint_x14_x10=[
0,1,6|
0,2,10|
0,3,10|
0,4,7.1|
1,0,4|
1,2,3.6|
1,3,8.2|
1,4,6.7|
2,0,3.7|
2,1,4.7|
2,3,5.8|
2,4,7.3|
3,0,2.6|
3,1,3.5|
3,2,7.9|
3,4,6.8|
4,0,0.28|
4,1,8.7|
4,2,9|
4,3,1.6|
];
constraint_x14_x11=[
0,1,7.7|
0,2,8.8|
0,3,8.2|
0,4,6.5|
1,0,3|
1,2,4.1|
1,3,1.2|
1,4,4.5|
2,0,5.7|
2,1,7.4|
2,3,0.006|
2,4,9.2|
3,0,3.7|
3,1,4.3|
3,2,8.5|
3,4,9.8|
4,0,3.8|
4,1,4|
4,2,0.38|
4,3,8.6|
];
constraint_x14_x13=[
0,1,7.9|
0,2,3.7|
0,3,4.3|
0,4,5.4|
1,0,4.3|
1,2,4.1|
1,3,4.7|
1,4,4.7|
2,0,5.3|
2,1,1.8|
2,3,0.79|
2,4,5.5|
3,0,1.7|
3,1,4.5|
3,2,6.3|
3,4,2.8|
4,0,4.4|
4,1,8|
4,2,8.9|
4,3,7.3|
];
constraint_x1_y1=[
0,0,3.3|
0,1,3.1|
0,2,7.8|
0,3,2.6|
0,4,5.7|
1,0,3.9|
1,1,9.2|
1,2,4.5|
1,3,6.7|
1,4,6.7|
2,0,5.6|
2,1,4.5|
2,2,1.1|
2,3,8.8|
2,4,9.9|
3,0,2.4|
3,1,7.9|
3,2,1.6|
3,3,2.7|
3,4,9.2|
4,0,6.5|
4,1,8.8|
4,2,2.5|
4,3,6.4|
4,4,1.1|
];
constraint_x2_y2=[
0,0,3.5|
0,1,9.7|
0,2,8.9|
0,3,7.1|
0,4,8.4|
1,0,5.6|
1,1,4|
1,2,0.93|
1,3,4.8|
1,4,3|
2,0,0.36|
2,1,9.5|
2,2,0.86|
2,3,0.77|
2,4,0.6|
3,0,6.5|
3,1,4.3|
3,2,2.9|
3,3,4.8|
3,4,4.6|
4,0,3.5|
4,1,9.3|
4,2,0.95|
4,3,5.3|
4,4,5.2|
];
constraint_x3_y3=[
0,0,4.2|
0,1,8.9|
0,2,8|
0,3,7.5|
0,4,5.7|
1,0,2.8|
1,1,0.071|
1,2,0.35|
1,3,6.8|
1,4,7.3|
2,0,7.3|
2,1,8.9|
2,2,7.2|
2,3,4.9|
2,4,1.3|
3,0,7.2|
3,1,8.1|
3,2,3.2|
3,3,9.4|
3,4,8.8|
4,0,1.3|
4,1,7.6|
4,2,4.8|
4,3,5.8|
4,4,1.7|
];
constraint_x4_y4=[
0,0,2.9|
0,1,0.0059|
0,2,8|
0,3,7.3|
0,4,7.1|
1,0,3.2|
1,1,6.3|
1,2,2.7|
1,3,1.8|
1,4,5.9|
2,0,3.9|
2,1,6.9|
2,2,0.39|
2,3,8.2|
2,4,9.4|
3,0,8.1|
3,1,5.2|
3,2,7.1|
3,3,8.8|
3,4,5.7|
4,0,7.2|
4,1,2.7|
4,2,0.77|
4,3,3.1|
4,4,9.5|
];
constraint_x5_y5=[
0,0,2.6|
0,1,0.28|
0,2,4.9|
0,3,8.5|
0,4,9.7|
1,0,7.9|
1,1,3.7|
1,2,8.7|
1,3,5.3|
1,4,7.5|
2,0,9.9|
2,1,2|
2,2,9.1|
2,3,3.7|
2,4,0.87|
3,0,0.5|
3,1,6|
3,2,4.3|
3,3,4|
3,4,0.92|
4,0,1.4|
4,1,3.9|
4,2,8.2|
4,3,2.1|
4,4,8.6|
];
constraint_x6_y6=[
0,0,5.7|
0,1,7.9|
0,2,3.6|
0,3,4.1|
0,4,0.52|
1,0,4.4|
1,1,3.1|
1,2,2.3|
1,3,3.6|
1,4,2.9|
2,0,7.4|
2,1,9.4|
2,2,6.6|
2,3,9.2|
2,4,4.7|
3,0,6.4|
3,1,6.3|
3,2,6.4|
3,3,7|
3,4,3.3|
4,0,4|
4,1,2.1|
4,2,4.3|
4,3,2.2|
4,4,4|
];
constraint_x7_y7=[
0,0,2.3|
0,1,4.5|
0,2,7.2|
0,3,1.7|
0,4,9.7|
1,0,5.8|
1,1,0.47|
1,2,1.7|
1,3,6.7|
1,4,4|
2,0,2.8|
2,1,7.1|
2,2,5.7|
2,3,0.64|
2,4,0.4|
3,0,1.8|
3,1,8.7|
3,2,2.8|
3,3,4.8|
3,4,4.1|
4,0,0.12|
4,1,9.3|
4,2,5.8|
4,3,5|
4,4,9.2|
];
initial_distribution_y1=[0.26,0.12,0.16,0.11,0.34];
initial_distribution_y2=[0.25,0.077,0.29,0.23,0.15];
initial_distribution_y3=[0.16,0.23,0.027,0.5,0.078];
initial_distribution_y4=[0.25,0.35,0.048,0.2,0.16];
initial_distribution_y5=[0.25,0.014,0.035,0.67,0.037];
initial_distribution_y6=[0.2,0.05,0.3,0.34,0.11];
initial_distribution_y7=[0.042,0.38,0.012,0.25,0.31];
transition_y1=[
0.29,0.13,0.11,0.28,0.19|
0.13,0.25,0.29,0.15,0.18|
0.29,0.0092,0.28,0.29,0.13|
0.19,0.061,0.14,0.25,0.36|
0.22,0.22,0.012,0.22,0.33|
];
transition_y2=[
0.33,0.16,0.038,0.19,0.27|
0.32,0.05,0.041,0.43,0.16|
0.21,0.25,0.094,0.3,0.14|
0.3,0.23,0.085,0.1,0.28|
0.38,0.35,0.01,0.2,0.05|
];
transition_y3=[
0.33,0.22,0.13,0.21,0.097|
0.046,0.11,0.32,0.15,0.38|
0.079,0.055,0.27,0.54,0.063|
0.096,0.11,0.35,0.18,0.26|
0.056,0.061,0.33,0.29,0.26|
];
transition_y4=[
0.28,0.23,0.12,0.28,0.094|
0.18,0.19,0.028,0.3,0.3|
0.15,0.2,0.47,0.081,0.11|
0.056,0.16,0.086,0.49,0.2|
0.29,0.12,0.15,0.24,0.19|
];
transition_y5=[
0.07,0.097,0.061,0.35,0.42|
0.29,0.071,0.3,0.25,0.1|
0.13,0.23,0.26,0.22,0.17|
0.13,0.21,0.12,0.33,0.22|
0.21,0.26,0.1,0.22,0.2|
];
transition_y6=[
0.26,0.14,0.27,0.3,0.036|
0.049,0.35,0.21,0.23,0.16|
0.017,0.25,0.29,0.22,0.23|
0.15,0.1,0.094,0.31,0.34|
0.27,0.16,0.3,0.26,0.014|
];
transition_y7=[
0.22,0.19,0.27,0.21,0.12|
0.051,0.25,0.29,0.092,0.31|
0.25,0.25,0.074,0.021,0.4|
0.13,0.1,0.26,0.37,0.14|
0.089,0.053,0.72,0.07,0.066|
];
